set VV := 0 1 2 3 ;
set VS := 0 1 2 3 4 5 6 7 8 9 10 11 ;
param cv := 
0 19
1 17
2 22
3 12
;
param cs := 
0 22
1 32
2 27
3 38
4 36
5 24
6 35
7 20
8 35
9 26
10 30
11 25
;
param bv:	 0 1 2 3 := 
		0 0 0 23 0 
		1 0 0 0 23 
		2 0 0 0 21 
		3 0 0 0 0 
;
param bs:	 0 1 2 3 4 5 6 7 8 9 10 11 := 
		0 0 26 0 0 0 0 0 32 0 0 0 0 
		1 26 0 0 30 0 0 0 0 0 33 0 0 
		2 0 0 0 0 37 0 0 0 0 0 0 24 
		3 0 30 0 0 0 28 0 0 0 0 36 0 
		4 0 0 37 0 0 0 0 0 29 0 0 0 
		5 0 0 0 28 0 0 0 0 0 0 20 0 
		6 0 0 0 0 0 0 0 0 0 30 0 0 
		7 32 0 0 0 0 0 0 0 30 0 0 33 
		8 0 0 0 0 29 0 0 30 0 29 39 0 
		9 0 33 0 0 0 0 30 0 29 0 0 0 
		10 0 0 0 36 0 20 0 0 39 0 0 0 
		11 0 0 24 0 0 0 0 33 0 0 0 0 
;
